452310620 1 0
32365320 -1 0
h 2 3 0
1 -4 0
h 4 -5 0
316837974 2 0
1 -6 0
8556561 -7 0
33626548 -8 0
1 -9 0
29029128 1 0
28077630 -1 -5 0
391321501 -1 5 0
1 -3 2 0
2327316032 -5 0
54948350 4 0
538026427 -2 0
33822474 4 0
2563326 -5 0
h 5 3 0
h -4 5 0
1 -1 0
25737 1 0
h -2 -3 0
6717951 -1 4 0
106848547 5 -3 0
292238001 3 0
